c NeuroCodeBench 2.0 CNF formula with verdict Unsat
p cnf 44 75
1 4 -28 35 -27 -32 12 -18 0
1 -4 -32 6 41 -26 0
1 -4 32 -39 34 -8 26 0
-1 -24 -15 30 -20 29 31 13 8 0
1 4 -28 35 27 -14 21 19 0
1 -4 32 -39 34 -8 -26 0
1 -4 -32 -6 14 33 5 39 0
-1 -24 -15 -30 26 0
1 4 28 -32 41 27 23 0
1 -4 32 39 -37 0
-1 24 -19 0
1 4 -28 -35 14 19 -32 0
1 4 28 -32 -41 0
1 4 -28 35 -27 32 20 -6 -19 0
1 4 28 -32 41 27 -23 0
1 4 -28 35 -27 -32 12 18 0
1 4 -28 35 27 -14 -21 -18 0
1 4 -28 35 -27 32 -20 22 -11 19 -41 0
-1 -24 -15 30 -20 29 31 -13 0
1 -4 32 -39 34 8 -3 0
-1 -24 -15 30 -20 29 31 13 -8 0
1 -4 32 -39 34 8 3 0
1 4 -28 35 -27 32 20 6 43 0
1 4 -28 -35 14 -19 0
1 4 -28 35 -27 32 -20 22 -11 19 41 0
1 4 -28 35 -27 -32 -12 -44 0
1 4 -28 35 -27 32 -20 22 11 40 0
-1 -24 -15 30 20 14 -18 0
-1 24 19 20 -38 -21 0
1 4 -28 -35 14 19 32 40 0
-1 -24 -15 30 -20 -29 41 13 0
1 -4 -32 -6 14 -33 -3 0
-1 -24 -15 -30 -26 18 5 0
1 4 -28 35 27 -14 -21 18 0
1 4 -28 35 -27 32 20 6 -43 3 -15 0
-1 -24 -15 30 -20 29 -31 0
1 4 28 32 -39 0
1 4 28 -32 41 -27 0
1 4 -28 35 -27 32 20 6 -43 -3 8 0
1 -4 -32 -6 14 -33 3 0
-1 24 19 -20 0
1 4 -28 35 -27 -32 -12 44 0
1 4 -28 35 27 -14 21 -19 0
-1 -24 -15 -30 -26 -18 0
1 4 -28 35 27 14 26 0
-1 -24 -15 30 -20 -29 -41 0
-1 24 19 20 -38 21 -30 0
1 -4 -32 6 -41 -3 0
1 4 -28 35 -27 32 20 6 -43 3 15 0
1 4 -28 35 27 14 -26 0
-1 -24 -15 30 20 14 18 0
1 4 -28 35 -27 32 -20 -22 0
1 -4 32 -39 -34 0
1 4 -28 35 -27 32 -20 22 11 -40 0
1 -4 -32 6 -41 3 0
1 -4 -32 -6 14 33 5 -39 0
-1 -24 -15 30 20 -14 0
1 4 -28 -35 14 19 32 -40 0
-1 -24 -15 -30 -26 18 -5 0
1 4 -28 35 -27 32 -20 22 -11 -19 0
-1 -24 -15 30 -20 -29 41 -13 14 0
1 4 -28 -35 -14 0
1 4 -28 35 -27 32 20 -6 19 0
1 4 -28 35 -27 32 20 6 -43 -3 -8 0
-1 -24 15 -35 0
1 -4 32 39 37 0
1 -4 -32 -6 -14 0
-1 24 19 20 -38 21 30 0
-1 -24 15 35 0
1 -4 -32 -6 14 33 -5 26 0
-1 -24 -15 30 -20 -29 41 -13 -14 0
1 4 28 32 39 0
1 -4 -32 -6 14 33 -5 -26 0
-1 24 19 20 38 0
1 -4 -32 6 41 26 0
